47
19 0 1 0 2 3 4 2 5 3 6 4 7 8 5 9 10 11 12 9 13 1 14 6 5 15 16 7 12 17 18 8 11 19 14 20 13 21 2 15 3 22 16 21 18 23 24 25 26 19 22 24 0 27 28 29 20 26 30 27 31 32 33 34 32 31 15 14 10 35 36 28 17 37 38 34 39 37 40 41 33 29 42 41 25 25 42 43 44 23 38 39 45 30 43 35 37 46 39 45 
